(declare-fun temp3830_1 () (_ BitVec 64))
(declare-fun temp3830_2 () (_ BitVec 64))
(declare-fun var73602 () (_ BitVec 64))
(declare-fun k!0 () Bool)
(declare-fun ARGNAME_x_NAMEEND_DIM () (_ BitVec 64))
(declare-fun temp3830_3 () (_ BitVec 64))
(declare-fun var66250 () (_ BitVec 64))
(declare-fun temp3830_4 () (_ BitVec 64))
(declare-fun temp3830_5 () (_ BitVec 64))
(declare-fun ARGNAME_x_NAMEEND_DIMSIZE () (Array (_ BitVec 64) (_ BitVec 64)))
(declare-fun temp3830_6 () (_ BitVec 64))
(declare-fun temp3830_7 () (_ BitVec 64))
(declare-fun temp3830_8 () (_ BitVec 64))
(declare-fun temp3830_9 () (_ BitVec 64))
(declare-fun temp3830_10 () (_ BitVec 64))
(declare-fun temp3830_11 () (_ BitVec 64))
(declare-fun temp3830_12 () (_ BitVec 64))
(declare-fun temp3830_13 () (_ BitVec 64))
(declare-fun temp3830_14 () (_ BitVec 64))
(declare-fun temp3830_15 () (_ BitVec 64))
(declare-fun temp3830_16 () (_ BitVec 64))
(declare-fun temp3830_17 () (_ BitVec 64))
(declare-fun temp3830_18 () (_ BitVec 64))
(declare-fun temp3830_19 () (_ BitVec 64))
(declare-fun temp3830_20 () (_ BitVec 64))
(declare-fun temp3830_21 () (_ BitVec 64))
(declare-fun temp3830_22 () (_ BitVec 64))
(declare-fun temp3830_23 () (_ BitVec 64))
(declare-fun temp3830_24 () (_ BitVec 64))
(declare-fun var73613 () (_ BitVec 64))
(declare-fun temp3830_25 () (_ BitVec 64))
(declare-fun temp3830_26 () (_ BitVec 64))
(declare-fun temp3830_27 () (_ BitVec 64))
(declare-fun temp3830_28 () (_ BitVec 64))
(declare-fun var73640 () (_ BitVec 64))
(declare-fun temp3830_30 () (_ BitVec 64))
(declare-fun temp3830_29 () (_ BitVec 64))
(declare-fun temp3830_31 () (_ BitVec 64))
(declare-fun var467142 () (_ BitVec 64))
(declare-fun temp3830_32 () (_ BitVec 64))
(declare-fun var1253582 () (_ BitVec 64))
(declare-fun var1253583 () (_ BitVec 64))
(declare-fun temp3830_33 () (_ BitVec 64))
(declare-fun var1311851 () (_ BitVec 64))
(declare-fun temp3830_35 () (_ BitVec 64))
(declare-fun temp3830_34 () (_ BitVec 64))
(declare-fun temp3830_36 () (_ BitVec 64))
(declare-fun var1712369 () (_ BitVec 64))
(declare-fun temp3830_37 () (_ BitVec 64))
(declare-fun var1712373 () (_ BitVec 64))
(declare-fun temp3830_38 () (_ BitVec 64))
(declare-fun var1712415 () (_ BitVec 64))
(declare-fun temp3830_39 () (_ BitVec 64))
(declare-fun temp3830_41 () (_ BitVec 64))
(declare-fun temp3830_40 () (_ BitVec 64))
(declare-fun temp3830_42 () (_ BitVec 64))
(declare-fun var2302193 () (_ BitVec 64))
(declare-fun temp3830_43 () (_ BitVec 64))
(declare-fun var2302197 () (_ BitVec 64))
(declare-fun temp3830_44 () (_ BitVec 64))
(declare-fun var2302239 () (_ BitVec 64))
(declare-fun temp3830_45 () (_ BitVec 64))
(declare-fun temp3830_47 () (_ BitVec 64))
(declare-fun temp3830_46 () (_ BitVec 64))
(declare-fun temp3830_48 () (_ BitVec 64))
(declare-fun var2760945 () (_ BitVec 64))
(declare-fun temp3830_49 () (_ BitVec 64))
(declare-fun var2760949 () (_ BitVec 64))
(declare-fun temp3830_50 () (_ BitVec 64))
(declare-fun var2760979 () (_ BitVec 64))
(declare-fun temp3830_51 () (_ BitVec 64))
(declare-fun temp3830_52 () (_ BitVec 64))
(declare-fun ARGNAME_increasing_NAMEEND () (_ BitVec 64))
(assert (= temp3830_1 #x0000000000000001))
(assert (= var73602
   (ite (= ARGNAME_x_NAMEEND_DIM temp3830_1)
        #x0000000000000001
        #x0000000000000000)))
(assert (= temp3830_2 #x0000000000000001))
(assert (= var73602 temp3830_2))
(assert (= temp3830_3 #x0000000000000000))
(assert (= var66250 temp3830_3))
(assert (= temp3830_4 #x0000000000000000))
(assert (= temp3830_5 temp3830_4))
(assert (= temp3830_6 (select ARGNAME_x_NAMEEND_DIMSIZE temp3830_5)))
(assert (= temp3830_7 #x0000000000000001))
(assert (= temp3830_8 temp3830_7))
(assert (= temp3830_9 (select ARGNAME_x_NAMEEND_DIMSIZE temp3830_8)))
(assert (= temp3830_10 #x0000000000000002))
(assert (= temp3830_11 temp3830_10))
(assert (= temp3830_12 (select ARGNAME_x_NAMEEND_DIMSIZE temp3830_11)))
(assert (= temp3830_13 #x0000000000000003))
(assert (= temp3830_14 temp3830_13))
(assert (= temp3830_15 (select ARGNAME_x_NAMEEND_DIMSIZE temp3830_14)))
(assert (= temp3830_16 #x0000000000000004))
(assert (= temp3830_17 temp3830_16))
(assert (= temp3830_18 (select ARGNAME_x_NAMEEND_DIMSIZE temp3830_17)))
(assert (= temp3830_19 #x0000000000000005))
(assert (= temp3830_20 temp3830_19))
(assert (= temp3830_21 (select ARGNAME_x_NAMEEND_DIMSIZE temp3830_20)))
(assert (= temp3830_22 #x0000000000000000))
(assert (= temp3830_23
   (ite (bvslt var66250 temp3830_22)
        (bvadd ARGNAME_x_NAMEEND_DIM var66250)
        var66250)))
(assert (= temp3830_24 (select ARGNAME_x_NAMEEND_DIMSIZE temp3830_23)))
(assert (= var73613 temp3830_24))
(assert (bvslt (ite (bvslt var66250 temp3830_22)
            (bvadd ARGNAME_x_NAMEEND_DIM var66250)
            var66250)
       ARGNAME_x_NAMEEND_DIM))
(assert (= temp3830_25 #x0000000000000000))
(assert (= var66250 temp3830_25))
(assert (= temp3830_26 #x0000000000000000))
(assert (= temp3830_27
   (ite (bvslt var66250 temp3830_26)
        (bvadd ARGNAME_x_NAMEEND_DIM var66250)
        var66250)))
(assert (= temp3830_28 (select ARGNAME_x_NAMEEND_DIMSIZE temp3830_27)))
(assert (= var73640 temp3830_28))
(assert (bvslt (ite (bvslt var66250 temp3830_26)
            (bvadd ARGNAME_x_NAMEEND_DIM var66250)
            var66250)
       ARGNAME_x_NAMEEND_DIM))
(assert (= temp3830_30 #x0000000000000002))
(assert (= temp3830_29 temp3830_30))
(assert (= temp3830_31 #x0000000000000004))
(assert (= var467142 temp3830_31))
(assert (= temp3830_32 #x0000000000000001))
(assert (= var1253582 temp3830_32))
(assert (= var1253583 var66250))
(assert (= temp3830_33 #x0000000000000001))
(assert (= var1311851 temp3830_33))
(assert (= temp3830_35 #x0000000000000001))
(assert (= temp3830_34 temp3830_35))
(assert (= temp3830_36 #x0000000000000001))
(assert (= var1712369 temp3830_36))
(assert (= temp3830_37 #x0000000000000001))
(assert (= var1712373 temp3830_37))
(assert (= temp3830_38 #x0000000000000000))
(assert (= var1712415 temp3830_38))
(assert (= temp3830_39 #x0000000000000000))
(assert (= var1712415 temp3830_39))
(assert (= temp3830_41 #x0000000000000001))
(assert (= temp3830_40 temp3830_41))
(assert (= temp3830_42 #x0000000000000001))
(assert (= var2302193 temp3830_42))
(assert (= temp3830_43 #x0000000000000001))
(assert (= var2302197 temp3830_43))
(assert (= temp3830_44 #x0000000000000000))
(assert (= var2302239 temp3830_44))
(assert (= temp3830_45 #x0000000000000000))
(assert (= var2302239 temp3830_45))
(assert (= temp3830_47 #x0000000000000001))
(assert (= temp3830_46 temp3830_47))
(assert (= temp3830_48 #x0000000000000001))
(assert (= var2760945 temp3830_48))
(assert (= temp3830_49 #x0000000000000001))
(assert (= var2760949 temp3830_49))
(assert (= temp3830_50 #x0000000000000000))
(assert (= var2760979 temp3830_50))
(assert (= temp3830_51 #x0000000000000000))
(assert (= var2760979 temp3830_51))
(assert (= temp3830_52 #x0000000000000001))
(assert (= ARGNAME_increasing_NAMEEND temp3830_52))
(model-add temp3830_1 () (_ BitVec 64) #x0000000000000001)
(model-add temp3830_2 () (_ BitVec 64) #x0000000000000001)
(model-add var73602 () (_ BitVec 64) #x0000000000000001)
(model-del k!0)
(model-add ARGNAME_x_NAMEEND_DIM
           ()
           (_ BitVec 64)
           (ite k!0 #x0000000000000001 (bvnot #x0000000000000001)))





